NAME : mr27
COMMENT : 27-city problem (DISC)
TYPE : TSP
DIMENSION : 27
EDGE_WEIGHT_TYPE : EUC_2D
NODE_COORD_SECTION
1 43 60
2 82 42
3 74 52
4 87 23
5 39 73
6 98 85
7 90 93
8 21 74
9 75 48
10 67 50
11 89 60
12 86 8
13 75 12
14 88 97
15 19 59
16 33 10
17 38 2
18 80 84
19 16 92
20 17 71
21 9 39
22 31 71
23 79 93
24 17 29
25 8 69
26 71 53
27 19 88
EOF
